(set-info :smt-lib-version 2.6)
(set-info :category "crafted")
(set-logic QF_FFA)
(define-sort FF0 () (_ FiniteField 52435875175126190479447740508185965837690552500527637822603658699938581184513))
(declare-fun _18_alt () FF0)
(declare-fun _9_alt () FF0)
(declare-fun _17_alt () FF0)
(declare-fun _8_alt () FF0)
(declare-fun _16_alt () FF0)
(declare-fun _7_alt () FF0)
(declare-fun _15_alt () FF0)
(declare-fun _6_alt () FF0)
(declare-fun _14_alt () FF0)
(declare-fun _5_alt () FF0)
(declare-fun _13_alt () FF0)
(declare-fun _4_alt () FF0)
(declare-fun _12_alt () FF0)
(declare-fun _3_alt () FF0)
(declare-fun _11_alt () FF0)
(declare-fun _2_alt () FF0)
(declare-fun _10_alt () FF0)
(declare-fun _1_alt () FF0)
(declare-fun _0_alt () FF0)
(declare-fun _18 () FF0)
(declare-fun _9 () FF0)
(declare-fun _17 () FF0)
(declare-fun _8 () FF0)
(declare-fun _16 () FF0)
(declare-fun _7 () FF0)
(declare-fun _15 () FF0)
(declare-fun _6 () FF0)
(declare-fun _14 () FF0)
(declare-fun _5 () FF0)
(declare-fun _13 () FF0)
(declare-fun _4 () FF0)
(declare-fun _12 () FF0)
(declare-fun _3 () FF0)
(declare-fun _11 () FF0)
(declare-fun _2 () FF0)
(declare-fun _10 () FF0)
(declare-fun _1 () FF0)
(declare-fun _0 () FF0)
(declare-fun out_alt () FF0)
(declare-fun out () FF0)
(assert 
  (let ((let0 _18_alt))
  (let ((let1 _9_alt))
  (let ((let2 _17_alt))
  (let ((let3 (ff.mul let2 let1)))
  (let ((let4 (= let3 let0)))
  (let ((let5 _8_alt))
  (let ((let6 _16_alt))
  (let ((let7 (ff.mul let6 let5)))
  (let ((let8 (= let7 let2)))
  (let ((let9 _7_alt))
  (let ((let10 _15_alt))
  (let ((let11 (ff.mul let10 let9)))
  (let ((let12 (= let11 let6)))
  (let ((let13 _6_alt))
  (let ((let14 _14_alt))
  (let ((let15 (ff.mul let14 let13)))
  (let ((let16 (= let15 let10)))
  (let ((let17 _5_alt))
  (let ((let18 _13_alt))
  (let ((let19 (ff.mul let18 let17)))
  (let ((let20 (= let19 let14)))
  (let ((let21 _4_alt))
  (let ((let22 _12_alt))
  (let ((let23 (ff.mul let22 let21)))
  (let ((let24 (= let23 let18)))
  (let ((let25 _3_alt))
  (let ((let26 _11_alt))
  (let ((let27 (ff.mul let26 let25)))
  (let ((let28 (= let27 let22)))
  (let ((let29 _2_alt))
  (let ((let30 _10_alt))
  (let ((let31 (ff.mul let30 let29)))
  (let ((let32 (= let31 let26)))
  (let ((let33 _1_alt))
  (let ((let34 _0_alt))
  (let ((let35 (ff.mul let34 let33)))
  (let ((let36 (= let35 let30)))
  (let ((let37 (ff.mul let1 let1)))
  (let ((let38 (= let37 let1)))
  (let ((let39 (ff.mul let5 let5)))
  (let ((let40 (= let39 let5)))
  (let ((let41 (ff.mul let9 let9)))
  (let ((let42 (= let41 let9)))
  (let ((let43 (ff.mul let13 let13)))
  (let ((let44 (= let43 let13)))
  (let ((let45 (ff.mul let17 let17)))
  (let ((let46 (= let45 let17)))
  (let ((let47 (ff.mul let21 let21)))
  (let ((let48 (= let47 let21)))
  (let ((let49 (ff.mul let25 let25)))
  (let ((let50 (= let49 let25)))
  (let ((let51 (ff.mul let29 let29)))
  (let ((let52 (= let51 let29)))
  (let ((let53 (ff.mul let33 let33)))
  (let ((let54 (= let53 let33)))
  (let ((let55 (ff.mul let34 let34)))
  (let ((let56 (= let55 let34)))
  (let ((let57 (and let56 let54 let52 let50 let48 let46 let44 let42 let40 let38 let36 let32 let28 let24 let20 let16 let12 let8 let4)))
  (let ((let58 _18))
  (let ((let59 _9))
  (let ((let60 _17))
  (let ((let61 (ff.mul let60 let59)))
  (let ((let62 (= let61 let58)))
  (let ((let63 _8))
  (let ((let64 _16))
  (let ((let65 (ff.mul let64 let63)))
  (let ((let66 (= let65 let60)))
  (let ((let67 _7))
  (let ((let68 _15))
  (let ((let69 (ff.mul let68 let67)))
  (let ((let70 (= let69 let64)))
  (let ((let71 _6))
  (let ((let72 _14))
  (let ((let73 (ff.mul let72 let71)))
  (let ((let74 (= let73 let68)))
  (let ((let75 _5))
  (let ((let76 _13))
  (let ((let77 (ff.mul let76 let75)))
  (let ((let78 (= let77 let72)))
  (let ((let79 _4))
  (let ((let80 _12))
  (let ((let81 (ff.mul let80 let79)))
  (let ((let82 (= let81 let76)))
  (let ((let83 _3))
  (let ((let84 _11))
  (let ((let85 (ff.mul let84 let83)))
  (let ((let86 (= let85 let80)))
  (let ((let87 _2))
  (let ((let88 _10))
  (let ((let89 (ff.mul let88 let87)))
  (let ((let90 (= let89 let84)))
  (let ((let91 _1))
  (let ((let92 _0))
  (let ((let93 (ff.mul let92 let91)))
  (let ((let94 (= let93 let88)))
  (let ((let95 (ff.mul let59 let59)))
  (let ((let96 (= let95 let59)))
  (let ((let97 (ff.mul let63 let63)))
  (let ((let98 (= let97 let63)))
  (let ((let99 (ff.mul let67 let67)))
  (let ((let100 (= let99 let67)))
  (let ((let101 (ff.mul let71 let71)))
  (let ((let102 (= let101 let71)))
  (let ((let103 (ff.mul let75 let75)))
  (let ((let104 (= let103 let75)))
  (let ((let105 (ff.mul let79 let79)))
  (let ((let106 (= let105 let79)))
  (let ((let107 (ff.mul let83 let83)))
  (let ((let108 (= let107 let83)))
  (let ((let109 (ff.mul let87 let87)))
  (let ((let110 (= let109 let87)))
  (let ((let111 (ff.mul let91 let91)))
  (let ((let112 (= let111 let91)))
  (let ((let113 (ff.mul let92 let92)))
  (let ((let114 (= let113 let92)))
  (let ((let115 (and let114 let112 let110 let108 let106 let104 let102 let100 let98 let96 let94 let90 let86 let82 let78 let74 let70 let66 let62)))
  (let ((let116 out_alt))
  (let ((let117 out))
  (let ((let118 (= let117 let116)))
  (let ((let119 (not let118)))
  (let ((let120 (= let83 let25)))
  (let ((let121 (= let79 let21)))
  (let ((let122 (= let59 let1)))
  (let ((let123 (= let63 let5)))
  (let ((let124 (= let92 let34)))
  (let ((let125 (= let71 let13)))
  (let ((let126 (= let75 let17)))
  (let ((let127 (= let91 let33)))
  (let ((let128 (= let87 let29)))
  (let ((let129 (= let67 let9)))
  (let ((let130 (and let129 let128 let127 let126 let125 let124 let123 let122 let121 let120)))
  (let ((let131 (and let130 let119 let115 let57)))
  let131
))))))))))))))))))))))))))))))))))))))))))))))))))))))))))))))))))))))))))))))))))))))))))))))))))))))))))))))))))))))))))))))))))))
)
(check-sat)
